;symbolic execution tree
(push)
(assert (le x3 siena.Notifiable))
(check-sat)
(push)
(assert (le x3 siena.Notifiable))
(check-sat)
(push)
(assert (le x3 siena.Notifiable))
(check-sat)
(push)
(assert (le x2 java.lang.String))
(check-sat)
(pop)
(push)
(assert (not (le x2 java.lang.String)))
(check-sat)
(pop)
(push)
(assert (le x0 java.lang.String))
(check-sat)
(pop)
(push)
(assert (not (le x0 java.lang.String)))
(check-sat)
(pop)
(pop)
(push)
(assert (not (le x3 siena.Notifiable)))
(check-sat)
(pop)
(push)
(assert (le x1 siena.ByteBuf))
(check-sat)
(push)
(assert (le x1 siena.ByteBuf))
(check-sat)
(pop)
(push)
(assert (not (le x1 siena.ByteBuf)))
(check-sat)
(pop)
(push)
(assert (le x2 java.util.Set))
(check-sat)
(pop)
(push)
(assert (not (le x2 java.util.Set)))
(check-sat)
(pop)
(pop)
(push)
(assert (not (le x1 siena.ByteBuf)))
(check-sat)
(pop)
(push)
(assert (le x1 java.lang.String))
(check-sat)
(push)
(assert (le x2 java.io.PrintStream))
(check-sat)
(pop)
(push)
(assert (not (le x2 java.io.PrintStream)))
(check-sat)
(pop)
(push)
(assert (le x0 java.lang.String))
(check-sat)
(pop)
(push)
(assert (not (le x0 java.lang.String)))
(check-sat)
(pop)
(push)
(assert (le x1 java.lang.String))
(check-sat)
(pop)
(push)
(assert (not (le x1 java.lang.String)))
(check-sat)
(pop)
(push)
(assert (le x2 java.lang.Long))
(check-sat)
(pop)
(push)
(assert (not (le x2 java.lang.Long)))
(check-sat)
(pop)
(pop)
(push)
(assert (not (le x1 java.lang.String)))
(check-sat)
(push)
(assert (le x2 java.util.Set))
(check-sat)
(pop)
(push)
(assert (not (le x2 java.util.Set)))
(check-sat)
(pop)
(pop)
(push)
(assert (le x3 siena.Notifiable))
(check-sat)
(pop)
(push)
(assert (not (le x3 siena.Notifiable)))
(check-sat)
(pop)
(push)
(assert (le x3 siena.Notifiable))
(check-sat)
(push)
(assert (le x2 siena.Tokenizer))
(check-sat)
(pop)
(push)
(assert (not (le x2 siena.Tokenizer)))
(check-sat)
(pop)
(pop)
(push)
(assert (not (le x3 siena.Notifiable)))
(check-sat)
(pop)
(push)
(assert (le x1 siena.ByteBuf))
(check-sat)
(pop)
(push)
(assert (not (le x1 siena.ByteBuf)))
(check-sat)
(pop)
(pop)
(push)
(assert (not (le x3 siena.Notifiable)))
(check-sat)
(pop)
(push)
(assert (le x3 siena.Notifiable))
(check-sat)
(push)
(assert (le x2 java.util.Set))
(check-sat)
(pop)
(push)
(assert (not (le x2 java.util.Set)))
(check-sat)
(push)
(assert (le x3 siena.Notifiable))
(check-sat)
(pop)
(push)
(assert (not (le x3 siena.Notifiable)))
(check-sat)
(pop)
(pop)
(pop)
(push)
(assert (not (le x3 siena.Notifiable)))
(check-sat)
(pop)
(push)
(assert (le x1 java.lang.StringBuilder))
(check-sat)
(pop)
(push)
(assert (not (le x1 java.lang.StringBuilder)))
(check-sat)
(push)
(assert (le x0 java.lang.String))
(check-sat)
(pop)
(push)
(assert (not (le x0 java.lang.String)))
(check-sat)
(push)
(assert (le x2 java.lang.String))
(check-sat)
(push)
(assert (le x3 siena.Notifiable))
(check-sat)
(pop)
(push)
(assert (not (le x3 siena.Notifiable)))
(check-sat)
(pop)
(pop)
(push)
(assert (not (le x2 java.lang.String)))
(check-sat)
(pop)
(pop)
(pop)
(pop)
(push)
(assert (not (le x3 siena.Notifiable)))
(check-sat)
(push)
(assert (le x1 java.io.PrintStream))
(check-sat)
(push)
(assert (le x3 siena.Notifiable))
(check-sat)
(pop)
(push)
(assert (not (le x3 siena.Notifiable)))
(check-sat)
(push)
(assert (le x0 siena.AttributeValue))
(check-sat)
(pop)
(push)
(assert (not (le x0 siena.AttributeValue)))
(check-sat)
(pop)
(pop)
(push)
(assert (le x0 siena.Tokenizer))
(check-sat)
(pop)
(push)
(assert (not (le x0 siena.Tokenizer)))
(check-sat)
(pop)
(push)
(assert (le x3 siena.Notifiable))
(check-sat)
(pop)
(push)
(assert (not (le x3 siena.Notifiable)))
(check-sat)
(pop)
(push)
(assert (le x1 java.io.PrintStream))
(check-sat)
(pop)
(push)
(assert (not (le x1 java.io.PrintStream)))
(check-sat)
(pop)
(pop)
(push)
(assert (not (le x1 java.io.PrintStream)))
(check-sat)
(push)
(assert (le x3 siena.Notifiable))
(check-sat)
(pop)
(push)
(assert (not (le x3 siena.Notifiable)))
(check-sat)
(pop)
(pop)
(push)
(assert (le x2 java.lang.String))
(check-sat)
(pop)
(push)
(assert (not (le x2 java.lang.String)))
(check-sat)
(push)
(assert (le x3 siena.Notifiable))
(check-sat)
(pop)
(push)
(assert (not (le x3 siena.Notifiable)))
(check-sat)
(pop)
(push)
(assert (le x3 siena.Notifiable))
(check-sat)
(pop)
(push)
(assert (not (le x3 siena.Notifiable)))
(check-sat)
(pop)
(push)
(assert (le x2 java.lang.String))
(check-sat)
(pop)
(push)
(assert (not (le x2 java.lang.String)))
(check-sat)
(push)
(assert (le x3 siena.Notifiable))
(check-sat)
(pop)
(push)
(assert (not (le x3 siena.Notifiable)))
(check-sat)
(pop)
(pop)
(pop)
(push)
(assert (le x1 siena.Filter))
(check-sat)
(push)
(assert (le x2 java.net.InetAddress))
(check-sat)
(pop)
(push)
(assert (le x2 java.lang.Byte))
(check-sat)
(push)
(assert (le x0 siena.Tokenizer))
(check-sat)
(pop)
(push)
(assert (not (le x0 siena.Tokenizer)))
(check-sat)
(pop)
(push)
(assert (le x1 siena.Filter))
(check-sat)
(pop)
(push)
(assert (not (le x1 siena.Filter)))
(check-sat)
(pop)
(pop)
(push)
(assert (le x2 siena.AttributeValue))
(check-sat)
(pop)
(push)
(assert (le x2 siena.Subscriber))
(check-sat)
(pop)
(push)
(assert (not (le x2 java.io.File)))
(check-sat)
(push)
(assert (not (le x2 java.util.AbstractMap)))
(check-sat)
(push)
(assert (not (le x2 siena.AttributeConstraint)))
(check-sat)
(push)
(assert (not (le x2 java.lang.String)))
(check-sat)
(push)
(assert (le x2 java.lang.Object))
(check-sat)
(push)
(assert (not (le x2 java.net.InetAddress)))
(check-sat)
(push)
(assert (not (le x2 siena.AttributeValue)))
(check-sat)
(push)
(assert (not (le x2 siena.Subscriber)))
(check-sat)
(pop)
(pop)
(pop)
(pop)
(pop)
(pop)
(pop)
(pop)
(push)
(assert (le x2 java.util.AbstractSet))
(check-sat)
(pop)
(push)
(assert (le x2 java.lang.Long))
(check-sat)
(push)
(assert (le x1 siena.Filter))
(check-sat)
(pop)
(push)
(assert (not (le x1 siena.Filter)))
(check-sat)
(pop)
(pop)
(push)
(assert (le x2 java.util.AbstractList))
(check-sat)
(push)
(assert (le x3 siena.Notifiable))
(check-sat)
(pop)
(push)
(assert (not (le x3 siena.Notifiable)))
(check-sat)
(pop)
(push)
(assert (le x1 siena.Filter))
(check-sat)
(pop)
(push)
(assert (not (le x1 siena.Filter)))
(check-sat)
(pop)
(pop)
(push)
(assert (le x2 java.lang.Integer))
(check-sat)
(pop)
(push)
(assert (le x2 java.lang.String))
(check-sat)
(pop)
(push)
(assert (le x2 siena.AttributeConstraint))
(check-sat)
(pop)
(push)
(assert (le x2 java.lang.Double))
(check-sat)
(push)
(assert (le x2 java.lang.Object))
(check-sat)
(pop)
(push)
(assert (not (le x2 java.lang.Object)))
(check-sat)
(pop)
(push)
(assert (le x3 siena.Notifiable))
(check-sat)
(pop)
(push)
(assert (not (le x3 siena.Notifiable)))
(check-sat)
(push)
(assert (le x2 java.lang.Object))
(check-sat)
(pop)
(push)
(assert (not (le x2 java.lang.Object)))
(check-sat)
(pop)
(pop)
(pop)
(push)
(assert (le x2 java.util.AbstractMap))
(check-sat)
(pop)
(push)
(assert (le x2 java.io.File))
(check-sat)
(pop)
(push)
(assert (le x3 siena.Notifiable))
(check-sat)
(pop)
(push)
(assert (not (le x3 siena.Notifiable)))
(check-sat)
(pop)
(pop)
(push)
(assert (not (le x1 siena.Filter)))
(check-sat)
(pop)
(push)
(assert (le x3 siena.Notifiable))
(check-sat)
(pop)
(push)
(assert (not (le x3 siena.Notifiable)))
(check-sat)
(push)
(assert (le x2 java.lang.String))
(check-sat)
(pop)
(push)
(assert (not (le x2 java.lang.String)))
(check-sat)
(pop)
(pop)
(push)
(assert (le x0 siena.Notifiable))
(check-sat)
(push)
(assert (le x1 java.lang.StringBuilder))
(check-sat)
(pop)
(push)
(assert (not (le x1 java.lang.StringBuilder)))
(check-sat)
(push)
(assert (le x0 siena.Notifiable))
(check-sat)
(pop)
(push)
(assert (not (le x0 siena.Notifiable)))
(check-sat)
(pop)
(push)
(assert (le x1 java.lang.StringBuilder))
(check-sat)
(pop)
(push)
(assert (not (le x1 java.lang.StringBuilder)))
(check-sat)
(pop)
(pop)
(push)
(assert (le x1 java.lang.StringBuilder))
(check-sat)
(pop)
(push)
(assert (not (le x1 java.lang.StringBuilder)))
(check-sat)
(push)
(assert (le x3 siena.Notifiable))
(check-sat)
(pop)
(push)
(assert (not (le x3 siena.Notifiable)))
(check-sat)
(pop)
(pop)
(push)
(assert (le x1 java.lang.StringBuilder))
(check-sat)
(pop)
(push)
(assert (not (le x1 java.lang.StringBuilder)))
(check-sat)
(pop)
(pop)
(push)
(assert (not (le x0 siena.Notifiable)))
(check-sat)
(pop)
(push)
(assert (le x1 siena.AttributeValue))
(check-sat)
(pop)
(push)
(assert (le x1 java.lang.Byte))
(check-sat)
(pop)
(push)
(assert (le x1 java.lang.Integer))
(check-sat)
(pop)
(push)
(assert (le x1 siena.Subscriber))
(check-sat)
(pop)
(push)
(assert (le x1 java.util.AbstractSet))
(check-sat)
(pop)
(push)
(assert (le x1 siena.AttributeConstraint))
(check-sat)
(pop)
(push)
(assert (le x1 java.lang.String))
(check-sat)
(pop)
(push)
(assert (le x1 java.lang.Long))
(check-sat)
(pop)
(push)
(assert (le x1 java.util.AbstractList))
(check-sat)
(pop)
(push)
(assert (not (le x1 java.util.AbstractMap)))
(check-sat)
(push)
(assert (not (le x1 siena.AttributeConstraint)))
(check-sat)
(push)
(assert (not (le x1 siena.Subscriber)))
(check-sat)
(push)
(assert (not (le x1 java.net.InetAddress)))
(check-sat)
(push)
(assert (le x1 java.lang.Object))
(check-sat)
(push)
(assert (not (le x1 siena.AttributeValue)))
(check-sat)
(push)
(assert (not (le x1 java.io.File)))
(check-sat)
(push)
(assert (not (le x1 java.lang.String)))
(check-sat)
(pop)
(pop)
(pop)
(pop)
(pop)
(pop)
(pop)
(pop)
(push)
(assert (le x1 java.io.File))
(check-sat)
(pop)
(push)
(assert (le x1 java.net.InetAddress))
(check-sat)
(pop)
(push)
(assert (le x1 java.lang.Double))
(check-sat)
(pop)
(push)
(assert (le x1 java.util.AbstractMap))
(check-sat)
(pop)
(push)
(assert (le x3 siena.Notifiable))
(check-sat)
(pop)
(push)
(assert (not (le x3 siena.Notifiable)))
(check-sat)
(pop)
(pop)
